2 - PMTGRC - Instances/2D/dados4.dat
param n:= 17;

set T:= 
1
2
3
4
5
6
7
8
9
10
11
12
13
14
15
16
17
;

set F:= 
100
120
140
160
180
200
A
B
C
E
;

set P:= 
1
2
3
4
5
6
7
;


set TF[1,1]:=
140
;

set TF[1,2]:=
100
;

set TF[1,3]:=
180
;

set TF[1,4]:=
140
;

set TF[1,5]:=
120
;

set TF[1,6]:=
100
;

set TF[1,7]:=
160
;

set TF[1,8]:=
180
;

set TF[1,9]:=
100
;

set TF[1,10]:=
120
;

set TF[1,11]:=
200
;

set TF[1,12]:=
140
;

set TF[1,13]:=
180
;

set TF[1,14]:=
120
;

set TF[1,15]:=
160
;

set TF[1,16]:=
160
;

set TF[1,17]:=
120
;

set TF[2,1]:=
160
;

set TF[2,2]:=
180
;

set TF[2,3]:=
140
;

set TF[2,4]:=
120
;

set TF[2,5]:=
160
;

set TF[2,6]:=
120
;

set TF[2,7]:=
160
;

set TF[2,8]:=
200
;

set TF[2,9]:=
100
;

set TF[2,10]:=
160
;

set TF[2,11]:=
180
;

set TF[2,12]:=
200
;

set TF[2,13]:=
180
;

set TF[2,14]:=
160
;

set TF[2,15]:=
200
;

set TF[2,16]:=
140
;

set TF[2,17]:=
120
;

set TF[3,1]:=
140
;

set TF[3,2]:=
120
;

set TF[3,3]:=
160
;

set TF[3,4]:=
200
;

set TF[3,5]:=
160
;

set TF[3,6]:=
100
;

set TF[3,7]:=
160
;

set TF[3,8]:=
200
;

set TF[3,9]:=
180
;

set TF[3,10]:=
180
;

set TF[3,11]:=
200
;

set TF[3,12]:=
100
;

set TF[3,13]:=
200
;

set TF[3,14]:=
120
;

set TF[3,15]:=
200
;

set TF[3,16]:=
200
;

set TF[3,17]:=
120
;

set TF[4,1]:=
200
;

set TF[4,2]:=
120
;

set TF[4,3]:=
100
;

set TF[4,4]:=
140
;

set TF[4,5]:=
100
;

set TF[4,6]:=
160
;

set TF[4,7]:=
160
;

set TF[4,8]:=
180
;

set TF[4,9]:=
120
;

set TF[4,10]:=
180
;

set TF[4,11]:=
120
;

set TF[4,12]:=
120
;

set TF[4,13]:=
200
;

set TF[4,14]:=
180
;

set TF[4,15]:=
180
;

set TF[4,16]:=
120
;

set TF[4,17]:=
180
;

set TF[5,1]:=
180
;

set TF[5,2]:=
180
;

set TF[5,3]:=
180
;

set TF[5,4]:=
160
;

set TF[5,5]:=
100
;

set TF[5,6]:=
160
;

set TF[5,7]:=
100
;

set TF[5,8]:=
120
;

set TF[5,9]:=
100
;

set TF[5,10]:=
200
;

set TF[5,11]:=
100
;

set TF[5,12]:=
200
;

set TF[5,13]:=
200
;

set TF[5,14]:=
160
;

set TF[5,15]:=
140
;

set TF[5,16]:=
180
;

set TF[5,17]:=
180
;

set TF[6,1]:=
A
;

set TF[6,2]:=
E
;

set TF[6,3]:=
B
;

set TF[6,4]:=
A
;

set TF[6,5]:=
C
;

set TF[6,6]:=
C
;

set TF[6,7]:=
B
;

set TF[6,8]:=
E
;

set TF[6,9]:=
B
;

set TF[6,10]:=
E
;

set TF[6,11]:=
C
;

set TF[6,12]:=
A
;

set TF[6,13]:=
B
;

set TF[6,14]:=
C
;

set TF[6,15]:=
C
;

set TF[6,16]:=
A
;

set TF[6,17]:=
C
;

set TF[7,1]:=
C
;

set TF[7,2]:=
B
;

set TF[7,3]:=
B
;

set TF[7,4]:=
C
;

set TF[7,5]:=
A
;

set TF[7,6]:=
C
;

set TF[7,7]:=
B
;

set TF[7,8]:=
C
;

set TF[7,9]:=
C
;

set TF[7,10]:=
B
;

set TF[7,11]:=
C
;

set TF[7,12]:=
C
;

set TF[7,13]:=
E
;

set TF[7,14]:=
B
;

set TF[7,15]:=
B
;

set TF[7,16]:=
A
;

set TF[7,17]:=
A
;



